language ESSENCE' 1.0

letting nnodes be 7
letting nrings be 4
letting capacity be 4
letting demand_ExplicitR3_Explicit be
        [[1, 5; int(1..2)], [2, 3; int(1..2)], [2, 5; int(1..2)], [2, 7; int(1..2)], [3, 5; int(1..2)],
         [3, 6; int(1..2)], [4, 6; int(1..2)], [5, 6; int(1..2)];
             int(1..8)]
$ Visualisation for demand_ExplicitR3_Explicit
$ 1 5
$ 2 3
$ 2 5
$ 2 7
$ 3 5
$ 3 6
$ 4 6
$ 5 6

letting fin1 be 8
